LogFiles/MP-27.txt

Gurobi 10.0.1 (mac64[x86]) logging started Tue Apr 18 21:20:51 2023

Set parameter LogFile to value "LogFiles/MP-27.txt"
Gurobi Optimizer version 10.0.1 build v10.0.1rc0 (mac64[x86])

CPU model: Intel(R) Core(TM) i5-5250U CPU @ 1.60GHz
Thread count: 2 physical cores, 4 logical processors, using up to 4 threads

Optimize a model with 25 rows, 27 columns and 37 nonzeros
Coefficient statistics:
  Matrix range     [1e+00, 1e+00]
  Objective range  [2e+01, 1e+02]
  Bounds range     [1e+00, 1e+00]
  RHS range        [1e+00, 1e+00]
Iteration    Objective       Primal Inf.    Dual Inf.      Time
       0    8.3195588e+02   6.000000e+00   0.000000e+00      0s
       1    1.0390580e+03   0.000000e+00   0.000000e+00      0s

Solved in 1 iterations and 0.00 seconds (0.00 work units)
Optimal objective  1.039058029e+03

Gurobi 10.0.1 (mac64[x86]) logging started Wed Apr 19 10:15:12 2023

Set parameter LogFile to value "LogFiles/MP-27.txt"
Gurobi Optimizer version 10.0.1 build v10.0.1rc0 (mac64[x86])

CPU model: Intel(R) Core(TM) i5-5250U CPU @ 1.60GHz
Thread count: 2 physical cores, 4 logical processors, using up to 4 threads

Optimize a model with 25 rows, 27 columns and 37 nonzeros
Coefficient statistics:
  Matrix range     [1e+00, 1e+00]
  Objective range  [2e+01, 1e+02]
  Bounds range     [1e+00, 1e+00]
  RHS range        [1e+00, 1e+00]
Iteration    Objective       Primal Inf.    Dual Inf.      Time
       0    8.3195588e+02   6.000000e+00   0.000000e+00      0s
       1    1.0390580e+03   0.000000e+00   0.000000e+00      0s

Solved in 1 iterations and 0.00 seconds (0.00 work units)
Optimal objective  1.039058029e+03
